2 0 2 0
2 1 3 5
0 0 2 5
0 1 0 6
1 0 1 0
3 0 1 8
5 0 1 13
2 2 5 9
1 1 2 8
3 1 0 13
4 0 2 13
0 2 1 16
4 1 1 22
5 1 3 16
5 2 5 19
1 2 4 13
4 2 4 25
2 3 0 18
3 2 2 22
3 3 3 27
5 3 0 28
0 3 3 30
1 3 5 28
0 4 5 38
3 4 4 30
4 3 5 41
1 4 0 38
2 4 1 27
5 4 4 38
0 5 4 42
1 5 3 48
2 5 4 48
3 5 5 45
4 4 0 48
4 5 3 52
5 5 2 42
